3 
4  21 36 49 
5  06 24 44 59 
6  14 26 41 56 
7  11 26 41 56 
8  11 26 41 56 
9  11 26 41 56 
10  11 26 41 56 
11  11 26 41 56 
12  11 26 41 56 
13  11 26 41 56 
14  11 26 41 56 
15  11 26 41 56 
16  11 26 41 56 
17  11 26 41 56 
18  11 26 41 56 
19  11 26 41 56 
20  11 26 41 56 
21  11 26 41 56 
22  11 26 41 56 
23  18 
0 
